15 40
25
2 11 9 0
3 2 12 21
7 10 8 11
4 8 11 3
5 9 6 23
2 7 7 4
1 4 6 13
1 6 7 11
5 4 4 0
3 8 4 5
3 1 4 4
5 5 10 35
1 3 10 32
4 12 11 23
2 6 6 17
4 2 8 21
4 11 2 29
2 10 4 19
2 3 13 0
2 11 0 29
4 3 0 26
4 26 0 0
4 8 6 32
2 3 11 0
2 6 4 13
----------
==========
